% Número total de personas
n = 50;

% Número de opiniones posibles
m = 5;

% Distribución inicial de personas por opinión
p = [15, 11, 5, 1, 18];

% Valores de las opiniones
v = [0.064, 0.105, 0.143, 0.580, 0.653];

% Costos extras al mover a opiniones vacías
ce = [12.732, 3.333, 18.094, 3.233, 16.187];

% Matriz de costos de mover de una opinión a otra
C = array2d(1..5, 1..5,
  [
    0.000,    3.061,    4.393,    4.025,    4.700,
    2.709,    0.000,    5.476,    2.005,    3.100,
    2.037,    4.157,    0.000,    4.766,    0.180,
    3.434,    4.043,    0.363,    0.000,    2.934,
    5.250,    5.882,    1.920,    2.402,    0.000
  ]);

% Costo total máximo permitido
C_max = 5.850;

% Número máximo de movimientos permitidos
M_max = 18;
